p cnf 276 624 
-20 -8 -37 -38 -39 0
-20 -8 -37 -38 39 0
-20 -8 -37 38 -39 0
-20 -8 -37 38 39 0
-20 -8 37 -38 -39 0
-20 -8 37 -38 39 0
-20 -8 37 38 -39 0
-20 -8 37 38 39 0
-5 -12 -40 -41 -42 0
-5 -12 -40 -41 42 0
-5 -12 -40 41 -42 0
-5 -12 -40 41 42 0
-5 -12 40 -41 -42 0
-5 -12 40 -41 42 0
-5 -12 40 41 -42 0
-5 -12 40 41 42 0
14 -6 -43 -44 -45 0
14 -6 -43 -44 45 0
14 -6 -43 44 -45 0
14 -6 -43 44 45 0
14 -6 43 -44 -45 0
14 -6 43 -44 45 0
14 -6 43 44 -45 0
14 -6 43 44 45 0
-29 21 -46 -47 -48 0
-29 21 -46 -47 48 0
-29 21 -46 47 -48 0
-29 21 -46 47 48 0
-29 21 46 -47 -48 0
-29 21 46 -47 48 0
-29 21 46 47 -48 0
-29 21 46 47 48 0
-10 -15 -19 -49 -50 0
-10 -15 -19 -49 50 0
-10 -15 -19 49 -50 0
-10 -15 -19 49 50 0
-22 35 -51 -52 -53 0
-22 35 -51 -52 53 0
-22 35 -51 52 -53 0
-22 35 -51 52 53 0
-22 35 51 -52 -53 0
-22 35 51 -52 53 0
-22 35 51 52 -53 0
-22 35 51 52 53 0
-4 19 -54 -55 -56 0
-4 19 -54 -55 56 0
-4 19 -54 55 -56 0
-4 19 -54 55 56 0
-4 19 54 -55 -56 0
-4 19 54 -55 56 0
-4 19 54 55 -56 0
-4 19 54 55 56 0
7 -27 -57 -58 -59 0
7 -27 -57 -58 59 0
7 -27 -57 58 -59 0
7 -27 -57 58 59 0
7 -27 57 -58 -59 0
7 -27 57 -58 59 0
7 -27 57 58 -59 0
7 -27 57 58 59 0
16 -23 -60 -61 -62 0
16 -23 -60 -61 62 0
16 -23 -60 61 -62 0
16 -23 -60 61 62 0
16 -23 60 -61 -62 0
16 -23 60 -61 62 0
16 -23 60 61 -62 0
16 -23 60 61 62 0
10 -18 -63 -64 -65 0
10 -18 -63 -64 65 0
10 -18 -63 64 -65 0
10 -18 -63 64 65 0
10 -18 63 -64 -65 0
10 -18 63 -64 65 0
10 -18 63 64 -65 0
10 -18 63 64 65 0
14 -27 -66 -67 -68 0
14 -27 -66 -67 68 0
14 -27 -66 67 -68 0
14 -27 -66 67 68 0
14 -27 66 -67 -68 0
14 -27 66 -67 68 0
14 -27 66 67 -68 0
14 -27 66 67 68 0
-36 10 -69 -70 -71 0
-36 10 -69 -70 71 0
-36 10 -69 70 -71 0
-36 10 -69 70 71 0
-36 10 69 -70 -71 0
-36 10 69 -70 71 0
-36 10 69 70 -71 0
-36 10 69 70 71 0
30 15 -72 -73 -74 0
30 15 -72 -73 74 0
30 15 -72 73 -74 0
30 15 -72 73 74 0
30 15 72 -73 -74 0
30 15 72 -73 74 0
30 15 72 73 -74 0
30 15 72 73 74 0
-30 18 8 -75 -76 0
-30 18 8 -75 76 0
-30 18 8 75 -76 0
-30 18 8 75 76 0
3 -29 -77 -78 -79 0
3 -29 -77 -78 79 0
3 -29 -77 78 -79 0
3 -29 -77 78 79 0
3 -29 77 -78 -79 0
3 -29 77 -78 79 0
3 -29 77 78 -79 0
3 -29 77 78 79 0
-6 -31 -80 -81 -82 0
-6 -31 -80 -81 82 0
-6 -31 -80 81 -82 0
-6 -31 -80 81 82 0
-6 -31 80 -81 -82 0
-6 -31 80 -81 82 0
-6 -31 80 81 -82 0
-6 -31 80 81 82 0
-5 11 -83 -84 -85 0
-5 11 -83 -84 85 0
-5 11 -83 84 -85 0
-5 11 -83 84 85 0
-5 11 83 -84 -85 0
-5 11 83 -84 85 0
-5 11 83 84 -85 0
-5 11 83 84 85 0
-2 13 -86 -87 -88 0
-2 13 -86 -87 88 0
-2 13 -86 87 -88 0
-2 13 -86 87 88 0
-2 13 86 -87 -88 0
-2 13 86 -87 88 0
-2 13 86 87 -88 0
-2 13 86 87 88 0
-28 1 -89 -90 -91 0
-28 1 -89 -90 91 0
-28 1 -89 90 -91 0
-28 1 -89 90 91 0
-28 1 89 -90 -91 0
-28 1 89 -90 91 0
-28 1 89 90 -91 0
-28 1 89 90 91 0
-25 -1 32 -92 -93 0
-25 -1 32 -92 93 0
-25 -1 32 92 -93 0
-25 -1 32 92 93 0
3 -9 -94 -95 -96 0
3 -9 -94 -95 96 0
3 -9 -94 95 -96 0
3 -9 -94 95 96 0
3 -9 94 -95 -96 0
3 -9 94 -95 96 0
3 -9 94 95 -96 0
3 -9 94 95 96 0
25 21 -97 -98 -99 0
25 21 -97 -98 99 0
25 21 -97 98 -99 0
25 21 -97 98 99 0
25 21 97 -98 -99 0
25 21 97 -98 99 0
25 21 97 98 -99 0
25 21 97 98 99 0
-32 -12 -100 -101 -102 0
-32 -12 -100 -101 102 0
-32 -12 -100 101 -102 0
-32 -12 -100 101 102 0
-32 -12 100 -101 -102 0
-32 -12 100 -101 102 0
-32 -12 100 101 -102 0
-32 -12 100 101 102 0
-27 3 -103 -104 -105 0
-27 3 -103 -104 105 0
-27 3 -103 104 -105 0
-27 3 -103 104 105 0
-27 3 103 -104 -105 0
-27 3 103 -104 105 0
-27 3 103 104 -105 0
-27 3 103 104 105 0
-2 -17 -106 -107 -108 0
-2 -17 -106 -107 108 0
-2 -17 -106 107 -108 0
-2 -17 -106 107 108 0
-2 -17 106 -107 -108 0
-2 -17 106 -107 108 0
-2 -17 106 107 -108 0
-2 -17 106 107 108 0
34 16 -109 -110 -111 0
34 16 -109 -110 111 0
34 16 -109 110 -111 0
34 16 -109 110 111 0
34 16 109 -110 -111 0
34 16 109 -110 111 0
34 16 109 110 -111 0
34 16 109 110 111 0
13 -22 -112 -113 -114 0
13 -22 -112 -113 114 0
13 -22 -112 113 -114 0
13 -22 -112 113 114 0
13 -22 112 -113 -114 0
13 -22 112 -113 114 0
13 -22 112 113 -114 0
13 -22 112 113 114 0
-31 -9 -115 -116 -117 0
-31 -9 -115 -116 117 0
-31 -9 -115 116 -117 0
-31 -9 -115 116 117 0
-31 -9 115 -116 -117 0
-31 -9 115 -116 117 0
-31 -9 115 116 -117 0
-31 -9 115 116 117 0
-31 25 -118 -119 -120 0
-31 25 -118 -119 120 0
-31 25 -118 119 -120 0
-31 25 -118 119 120 0
-31 25 118 -119 -120 0
-31 25 118 -119 120 0
-31 25 118 119 -120 0
-31 25 118 119 120 0
34 -23 -121 -122 -123 0
34 -23 -121 -122 123 0
34 -23 -121 122 -123 0
34 -23 -121 122 123 0
34 -23 121 -122 -123 0
34 -23 121 -122 123 0
34 -23 121 122 -123 0
34 -23 121 122 123 0
-36 1 -124 -125 -126 0
-36 1 -124 -125 126 0
-36 1 -124 125 -126 0
-36 1 -124 125 126 0
-36 1 124 -125 -126 0
-36 1 124 -125 126 0
-36 1 124 125 -126 0
-36 1 124 125 126 0
-20 34 -127 -128 -129 0
-20 34 -127 -128 129 0
-20 34 -127 128 -129 0
-20 34 -127 128 129 0
-20 34 127 -128 -129 0
-20 34 127 -128 129 0
-20 34 127 128 -129 0
-20 34 127 128 129 0
-28 33 -130 -131 -132 0
-28 33 -130 -131 132 0
-28 33 -130 131 -132 0
-28 33 -130 131 132 0
-28 33 130 -131 -132 0
-28 33 130 -131 132 0
-28 33 130 131 -132 0
-28 33 130 131 132 0
24 9 22 -133 -134 0
24 9 22 -133 134 0
24 9 22 133 -134 0
24 9 22 133 134 0
16 -8 -135 -136 -137 0
16 -8 -135 -136 137 0
16 -8 -135 136 -137 0
16 -8 -135 136 137 0
16 -8 135 -136 -137 0
16 -8 135 -136 137 0
16 -8 135 136 -137 0
16 -8 135 136 137 0
-12 19 -138 -139 -140 0
-12 19 -138 -139 140 0
-12 19 -138 139 -140 0
-12 19 -138 139 140 0
-12 19 138 -139 -140 0
-12 19 138 -139 140 0
-12 19 138 139 -140 0
-12 19 138 139 140 0
25 -27 -141 -142 -143 0
25 -27 -141 -142 143 0
25 -27 -141 142 -143 0
25 -27 -141 142 143 0
25 -27 141 -142 -143 0
25 -27 141 -142 143 0
25 -27 141 142 -143 0
25 -27 141 142 143 0
10 -2 -144 -145 -146 0
10 -2 -144 -145 146 0
10 -2 -144 145 -146 0
10 -2 -144 145 146 0
10 -2 144 -145 -146 0
10 -2 144 -145 146 0
10 -2 144 145 -146 0
10 -2 144 145 146 0
20 -14 17 -147 -148 0
20 -14 17 -147 148 0
20 -14 17 147 -148 0
20 -14 17 147 148 0
19 -5 -149 -150 -151 0
19 -5 -149 -150 151 0
19 -5 -149 150 -151 0
19 -5 -149 150 151 0
19 -5 149 -150 -151 0
19 -5 149 -150 151 0
19 -5 149 150 -151 0
19 -5 149 150 151 0
11 -4 -152 -153 -154 0
11 -4 -152 -153 154 0
11 -4 -152 153 -154 0
11 -4 -152 153 154 0
11 -4 152 -153 -154 0
11 -4 152 -153 154 0
11 -4 152 153 -154 0
11 -4 152 153 154 0
-32 34 -155 -156 -157 0
-32 34 -155 -156 157 0
-32 34 -155 156 -157 0
-32 34 -155 156 157 0
-32 34 155 -156 -157 0
-32 34 155 -156 157 0
-32 34 155 156 -157 0
-32 34 155 156 157 0
10 13 -158 -159 -160 0
10 13 -158 -159 160 0
10 13 -158 159 -160 0
10 13 -158 159 160 0
10 13 158 -159 -160 0
10 13 158 -159 160 0
10 13 158 159 -160 0
10 13 158 159 160 0
-24 -23 -161 -162 -163 0
-24 -23 -161 -162 163 0
-24 -23 -161 162 -163 0
-24 -23 -161 162 163 0
-24 -23 161 -162 -163 0
-24 -23 161 -162 163 0
-24 -23 161 162 -163 0
-24 -23 161 162 163 0
28 27 -34 -164 -165 0
28 27 -34 -164 165 0
28 27 -34 164 -165 0
28 27 -34 164 165 0
-17 -22 -166 -167 -168 0
-17 -22 -166 -167 168 0
-17 -22 -166 167 -168 0
-17 -22 -166 167 168 0
-17 -22 166 -167 -168 0
-17 -22 166 -167 168 0
-17 -22 166 167 -168 0
-17 -22 166 167 168 0
-2 -26 -169 -170 -171 0
-2 -26 -169 -170 171 0
-2 -26 -169 170 -171 0
-2 -26 -169 170 171 0
-2 -26 169 -170 -171 0
-2 -26 169 -170 171 0
-2 -26 169 170 -171 0
-2 -26 169 170 171 0
-26 1 -172 -173 -174 0
-26 1 -172 -173 174 0
-26 1 -172 173 -174 0
-26 1 -172 173 174 0
-26 1 172 -173 -174 0
-26 1 172 -173 174 0
-26 1 172 173 -174 0
-26 1 172 173 174 0
35 33 -175 -176 -177 0
35 33 -175 -176 177 0
35 33 -175 176 -177 0
35 33 -175 176 177 0
35 33 175 -176 -177 0
35 33 175 -176 177 0
35 33 175 176 -177 0
35 33 175 176 177 0
-24 -20 -178 -179 -180 0
-24 -20 -178 -179 180 0
-24 -20 -178 179 -180 0
-24 -20 -178 179 180 0
-24 -20 178 -179 -180 0
-24 -20 178 -179 180 0
-24 -20 178 179 -180 0
-24 -20 178 179 180 0
-26 35 -181 -182 -183 0
-26 35 -181 -182 183 0
-26 35 -181 182 -183 0
-26 35 -181 182 183 0
-26 35 181 -182 -183 0
-26 35 181 -182 183 0
-26 35 181 182 -183 0
-26 35 181 182 183 0
29 -11 26 -184 -185 0
29 -11 26 -184 185 0
29 -11 26 184 -185 0
29 -11 26 184 185 0
14 30 -186 -187 -188 0
14 30 -186 -187 188 0
14 30 -186 187 -188 0
14 30 -186 187 188 0
14 30 186 -187 -188 0
14 30 186 -187 188 0
14 30 186 187 -188 0
14 30 186 187 188 0
33 -36 -189 -190 -191 0
33 -36 -189 -190 191 0
33 -36 -189 190 -191 0
33 -36 -189 190 191 0
33 -36 189 -190 -191 0
33 -36 189 -190 191 0
33 -36 189 190 -191 0
33 -36 189 190 191 0
-18 -17 -192 -193 -194 0
-18 -17 -192 -193 194 0
-18 -17 -192 193 -194 0
-18 -17 -192 193 194 0
-18 -17 192 -193 -194 0
-18 -17 192 -193 194 0
-18 -17 192 193 -194 0
-18 -17 192 193 194 0
-8 -24 -195 -196 -197 0
-8 -24 -195 -196 197 0
-8 -24 -195 196 -197 0
-8 -24 -195 196 197 0
-8 -24 195 -196 -197 0
-8 -24 195 -196 197 0
-8 -24 195 196 -197 0
-8 -24 195 196 197 0
-4 -32 -198 -199 -200 0
-4 -32 -198 -199 200 0
-4 -32 -198 199 -200 0
-4 -32 -198 199 200 0
-4 -32 198 -199 -200 0
-4 -32 198 -199 200 0
-4 -32 198 199 -200 0
-4 -32 198 199 200 0
-18 33 -201 -202 -203 0
-18 33 -201 -202 203 0
-18 33 -201 202 -203 0
-18 33 -201 202 203 0
-18 33 201 -202 -203 0
-18 33 201 -202 203 0
-18 33 201 202 -203 0
-18 33 201 202 203 0
-16 -33 -7 -204 -205 0
-16 -33 -7 -204 205 0
-16 -33 -7 204 -205 0
-16 -33 -7 204 205 0
-17 -28 -206 -207 -208 0
-17 -28 -206 -207 208 0
-17 -28 -206 207 -208 0
-17 -28 -206 207 208 0
-17 -28 206 -207 -208 0
-17 -28 206 -207 208 0
-17 -28 206 207 -208 0
-17 -28 206 207 208 0
-35 -3 23 -209 -210 0
-35 -3 23 -209 210 0
-35 -3 23 209 -210 0
-35 -3 23 209 210 0
11 -32 -211 -212 -213 0
11 -32 -211 -212 213 0
11 -32 -211 212 -213 0
11 -32 -211 212 213 0
11 -32 211 -212 -213 0
11 -32 211 -212 213 0
11 -32 211 212 -213 0
11 -32 211 212 213 0
-9 14 -214 -215 -216 0
-9 14 -214 -215 216 0
-9 14 -214 215 -216 0
-9 14 -214 215 216 0
-9 14 214 -215 -216 0
-9 14 214 -215 216 0
-9 14 214 215 -216 0
-9 14 214 215 216 0
7 3 -217 -218 -219 0
7 3 -217 -218 219 0
7 3 -217 218 -219 0
7 3 -217 218 219 0
7 3 217 -218 -219 0
7 3 217 -218 219 0
7 3 217 218 -219 0
7 3 217 218 219 0
25 -29 -220 -221 -222 0
25 -29 -220 -221 222 0
25 -29 -220 221 -222 0
25 -29 -220 221 222 0
25 -29 220 -221 -222 0
25 -29 220 -221 222 0
25 -29 220 221 -222 0
25 -29 220 221 222 0
13 1 -223 -224 -225 0
13 1 -223 -224 225 0
13 1 -223 224 -225 0
13 1 -223 224 225 0
13 1 223 -224 -225 0
13 1 223 -224 225 0
13 1 223 224 -225 0
13 1 223 224 225 0
-5 -20 -226 -227 -228 0
-5 -20 -226 -227 228 0
-5 -20 -226 227 -228 0
-5 -20 -226 227 228 0
-5 -20 226 -227 -228 0
-5 -20 226 -227 228 0
-5 -20 226 227 -228 0
-5 -20 226 227 228 0
-22 -18 -229 -230 -231 0
-22 -18 -229 -230 231 0
-22 -18 -229 230 -231 0
-22 -18 -229 230 231 0
-22 -18 229 -230 -231 0
-22 -18 229 -230 231 0
-22 -18 229 230 -231 0
-22 -18 229 230 231 0
7 30 -232 -233 -234 0
7 30 -232 -233 234 0
7 30 -232 233 -234 0
7 30 -232 233 234 0
7 30 232 -233 -234 0
7 30 232 -233 234 0
7 30 232 233 -234 0
7 30 232 233 234 0
-26 -36 -235 -236 -237 0
-26 -36 -235 -236 237 0
-26 -36 -235 236 -237 0
-26 -36 -235 236 237 0
-26 -36 235 -236 -237 0
-26 -36 235 -236 237 0
-26 -36 235 236 -237 0
-26 -36 235 236 237 0
-29 -6 -238 -239 -240 0
-29 -6 -238 -239 240 0
-29 -6 -238 239 -240 0
-29 -6 -238 239 240 0
-29 -6 238 -239 -240 0
-29 -6 238 -239 240 0
-29 -6 238 239 -240 0
-29 -6 238 239 240 0
21 7 -241 -242 -243 0
21 7 -241 -242 243 0
21 7 -241 242 -243 0
21 7 -241 242 243 0
21 7 241 -242 -243 0
21 7 241 -242 243 0
21 7 241 242 -243 0
21 7 241 242 243 0
-4 16 -244 -245 -246 0
-4 16 -244 -245 246 0
-4 16 -244 245 -246 0
-4 16 -244 245 246 0
-4 16 244 -245 -246 0
-4 16 244 -245 246 0
-4 16 244 245 -246 0
-4 16 244 245 246 0
15 21 -247 -248 -249 0
15 21 -247 -248 249 0
15 21 -247 248 -249 0
15 21 -247 248 249 0
15 21 247 -248 -249 0
15 21 247 -248 249 0
15 21 247 248 -249 0
15 21 247 248 249 0
-31 15 -250 -251 -252 0
-31 15 -250 -251 252 0
-31 15 -250 251 -252 0
-31 15 -250 251 252 0
-31 15 250 -251 -252 0
-31 15 250 -251 252 0
-31 15 250 251 -252 0
-31 15 250 251 252 0
19 -8 -253 -254 -255 0
19 -8 -253 -254 255 0
19 -8 -253 254 -255 0
19 -8 -253 254 255 0
19 -8 253 -254 -255 0
19 -8 253 -254 255 0
19 -8 253 254 -255 0
19 -8 253 254 255 0
4 36 -21 -256 -257 0
4 36 -21 -256 257 0
4 36 -21 256 -257 0
4 36 -21 256 257 0
15 -6 -258 -259 -260 0
15 -6 -258 -259 260 0
15 -6 -258 259 -260 0
15 -6 -258 259 260 0
15 -6 258 -259 -260 0
15 -6 258 -259 260 0
15 -6 258 259 -260 0
15 -6 258 259 260 0
-13 12 31 -261 -262 0
-13 12 31 -261 262 0
-13 12 31 261 -262 0
-13 12 31 261 262 0
30 -9 -263 -264 -265 0
30 -9 -263 -264 265 0
30 -9 -263 264 -265 0
30 -9 -263 264 265 0
30 -9 263 -264 -265 0
30 -9 263 -264 265 0
30 -9 263 264 -265 0
30 -9 263 264 265 0
5 2 6 -266 -267 0
5 2 6 -266 267 0
5 2 6 266 -267 0
5 2 6 266 267 0
-23 11 -268 -269 -270 0
-23 11 -268 -269 270 0
-23 11 -268 269 -270 0
-23 11 -268 269 270 0
-23 11 268 -269 -270 0
-23 11 268 -269 270 0
-23 11 268 269 -270 0
-23 11 268 269 270 0
-28 35 -271 -272 -273 0
-28 35 -271 -272 273 0
-28 35 -271 272 -273 0
-28 35 -271 272 273 0
-28 35 271 -272 -273 0
-28 35 271 -272 273 0
-28 35 271 272 -273 0
-28 35 271 272 273 0
-12 -24 -274 -275 -276 0
-12 -24 -274 -275 276 0
-12 -24 -274 275 -276 0
-12 -24 -274 275 276 0
-12 -24 274 -275 -276 0
-12 -24 274 -275 276 0
-12 -24 274 275 -276 0
-12 -24 274 275 276 0
